32      4       
10      10      10      10      
0       0       0       0       0       7       2       3       4       5       6       7       10      
4       1       0       1       1       5       8       9       14      16      17      
1       0       1       4       4       6       11      13      14      15      16      20      
8       0       4       4       6       4       11      13      14      20      
8       0       4       4       5       4       12      16      18      27      
2       5       4       3       0       5       14      19      20      23      27      
1       0       7       5       3       3       12      18      27      
10      5       3       0       4       6       15      19      20      26      27      31      
3       6       8       0       4       3       11      18      21      
9       0       4       4       4       3       11      18      21      
3       6       4       2       0       6       19      22      23      26      27      31      
8       5       0       3       2       5       19      20      23      26      31      
10      4       0       6       4       4       19      21      26      27      
1       0       3       6       5       3       18      26      31      
4       0       4       4       6       5       21      22      23      25      30      
10      3       5       5       0       5       22      23      24      25      30      
4       2       0       5       3       4       22      24      26      31      
8       0       3       4       5       4       22      24      25      30      
3       6       5       0       5       4       24      25      29      30      
4       5       3       0       6       2       21      30      
8       0       3       4       3       2       24      29      
7       5       0       5       4       2       28      29      
9       3       1       0       5       2       28      29      
8       3       0       3       5       1       28      
9       2       7       6       0       1       28      
1       4       3       0       2       1       30      
1       0       4       3       3       1       28      
6       5       3       5       0       1       32      
1       2       0       3       3       1       32      
4       6       5       3       0       1       32      
4       2       4       4       0       1       32      
0       0       0       0       0       0       
